Sun 20 May 09:01:33 CEST 2018
CPXPARAM_TimeLimit                               45
CPXPARAM_Threads                                 4
CPXPARAM_MIP_Strategy_CallbackReducedLP          0
Tried aggregator 4 times.
MIP Presolve eliminated 941 rows and 968 columns.
MIP Presolve modified 1679 coefficients.
Aggregator did 3348 substitutions.
Reduced MIP has 4786 rows, 3729 columns, and 10711 nonzeros.
Reduced MIP has 3318 binaries, 8 generals, 0 SOSs, and 523 indicators.
Presolve time = 0.04 sec. (53.10 ticks)
Found incumbent of value 15.000000 after 0.06 sec. (76.32 ticks)
Probing time = 0.05 sec. (18.37 ticks)
Tried aggregator 3 times.
Aggregator did 2133 substitutions.
Reduced MIP has 2653 rows, 1596 columns, and 6445 nonzeros.
Reduced MIP has 1185 binaries, 411 generals, 0 SOSs, and 523 indicators.
Presolve time = 0.01 sec. (11.19 ticks)
Probing time = 0.02 sec. (20.71 ticks)
Tried aggregator 1 time.
Reduced MIP has 2653 rows, 1596 columns, and 6445 nonzeros.
Reduced MIP has 1185 binaries, 411 generals, 0 SOSs, and 523 indicators.
Presolve time = 0.01 sec. (5.73 ticks)
Probing time = 0.00 sec. (3.41 ticks)
Clique table members: 16376.
MIP emphasis: balance optimality and feasibility.
MIP search method: dynamic search.
Parallel mode: deterministic, using up to 4 threads.
Root relaxation solution time = 0.01 sec. (12.07 ticks)

        Nodes                                         Cuts/
   Node  Left     Objective  IInf  Best Integer    Best Bound    ItCnt     Gap

*     0+    0                           15.0000        0.0000           100.00%
      0     0        0.0000   795       15.0000        0.0000      297  100.00%
*     0+    0                            6.0000        0.0000           100.00%
      0     0        0.0000   724        6.0000  Cliques: 763      510   83.33%
      0     0        0.0000   476        6.0000  Cliques: 763      751   66.67%

Repeating presolve.
Tried aggregator 3 times.
MIP Presolve eliminated 1898 rows and 904 columns.
Aggregator did 6 substitutions.
Reduced MIP has 786 rows, 504 columns, and 1916 nonzeros.
Reduced MIP has 383 binaries, 121 generals, 0 SOSs, and 116 indicators.
Presolve time = 0.01 sec. (6.46 ticks)
Probing time = 0.00 sec. (2.67 ticks)
Tried aggregator 2 times.
Aggregator did 8 substitutions.
Reduced MIP has 778 rows, 496 columns, and 1900 nonzeros.
Reduced MIP has 375 binaries, 121 generals, 0 SOSs, and 116 indicators.
Presolve time = 0.00 sec. (1.51 ticks)
Probing time = 0.00 sec. (2.66 ticks)
Tried aggregator 1 time.
Reduced MIP has 778 rows, 496 columns, and 1900 nonzeros.
Reduced MIP has 375 binaries, 121 generals, 0 SOSs, and 116 indicators.
Presolve time = 0.00 sec. (1.63 ticks)
Represolve time = 0.04 sec. (57.89 ticks)
Probing time = 0.00 sec. (2.43 ticks)
Clique table members: 1383.
MIP emphasis: balance optimality and feasibility.
MIP search method: dynamic search.
Parallel mode: deterministic, using up to 4 threads.
Root relaxation solution time = 0.01 sec. (5.15 ticks)

        Nodes                                         Cuts/
   Node  Left     Objective  IInf  Best Integer    Best Bound    ItCnt     Gap

*     0+    0                            6.0000        2.0000            66.67%
      0     0        0.0000   138        6.0000        2.0000      869   66.67%
      0     0        0.0000   129        6.0000     Cuts: 118      978   66.67%
      0     0        0.0000   146        6.0000     Cuts: 180     1045   66.67%
      0     0        0.0000    90        6.0000     Cuts: 116     1066   66.67%
      0     0        0.0000   106        6.0000     Cuts: 176     1118   66.67%
      0     2        0.0000   115        6.0000        2.0000     1118   66.67%
Elapsed time = 1.50 sec. (1413.61 ticks, tree = 0.01 MB, solutions = 2)
    400     7    infeasible              6.0000        4.0000    21032   33.33%

Clique cuts applied:  13
Implied bound cuts applied:  347
Flow cuts applied:  3
Mixed integer rounding cuts applied:  1
Zero-half cuts applied:  66
Lift and project cuts applied:  2
Gomory fractional cuts applied:  4

Root node processing (before b&c):
  Real time             =    1.50 sec. (1413.33 ticks)
Parallel b&c, 4 threads:
  Real time             =    0.25 sec. (240.50 ticks)
  Sync time (average)   =    0.04 sec.
  Wait time (average)   =    0.00 sec.
                          ------------
Total (root+branch&cut) =    1.75 sec. (1653.83 ticks)
   | W
 L | 0 1 2 3 
------------
 0 | 7 6 1 1 
 1 | 4 4 4 2 
 2 | 4 4 4 2 
 3 | 5 5 3 3 
 4 | 5 5 3 3 
 5 | 5 5 3 3 
 6 | . . . . 
 7 | . . . . 
 8 | . . . . 
 9 | . . . . 
10 | . . . . 
11 | . . . . 
12 | . . . . 
13 | . . . . 
14 | . . . . 

Boxes' corners:      (w,l)
    Box 1 is at 
        top left     (2,0)
        bottom right (3,0)

    Box 2 is at 
        top left     (3,1)
        bottom right (3,2)

    Box 3 is at 
        top left     (2,3)
        bottom right (3,5)

    Box 4 is at 
        top left     (0,1)
        bottom right (2,2)

    Box 5 is at 
        top left     (0,3)
        bottom right (1,5)

    Box 6 is at 
        top left     (1,0)
        bottom right (1,0)

    Box 7 is at 
        top left     (0,0)
        bottom right (0,0)

    Roll length used: 6
In 6.24 seconds
